c User generated cnf file
p cnf 12 35
8 -5 8 0 
6 -6 5 0 
10 -7 2 0 
4 11 -11 0 
11 -11 10 0 
2 10 -12 0 
10 1 -1 0 
12 -8 1 0 
5 12 -7 0 
1 -5 4 0 
4 -1 12 0 
8 -2 11 0 
2 -10 10 0 
11 12 -2 0 
3 10 -7 0 
11 4 -2 0 
12 -1 6 0 
4 -9 2 0 
1 7 -9 0 
1 12 -6 0 
12 -4 1 0 
8 -6 2 0 
5 -10 10 0 
11 -12 6 0 
8 -5 12 0 
5 -9 8 0 
4 6 -2 0 
7 12 -1 0 
2 5 -1 0 
1 -10 8 0 
6 -4 7 0 
12 -1 11 0 
3 -5 3 0 
5 -6 5 0 
1 12 -3 0 
